Solver command line: ['C:\\gurobi1102\\win64\\bin\\gurobi.bat']

Set parameter Username
Academic license - for non-commercial use only - expires 2025-06-25
Read LP format model from file C:\Users\danin\AppData\Local\Temp\tmpnhla6osf.pyomo.lp
Reading time = 0.42 seconds
x1: 65100 rows, 65000 columns, 437500 nonzeros
Set parameter Cuts to value 1
Set parameter Presolve to value 1
Set parameter TimeLimit to value 1800
Set parameter MIPGap to value 0.01
Set parameter Threads to value 6
Gurobi Optimizer version 11.0.2 build v11.0.2rc0 (win64 - Windows 11.0 (22631.2))

CPU model: AMD Ryzen 5 4600H with Radeon Graphics, instruction set [SSE2|AVX|AVX2]
Thread count: 6 physical cores, 12 logical processors, using up to 6 threads

Optimize a model with 65100 rows, 65000 columns and 437500 nonzeros
Model fingerprint: 0x209d6649
Variable types: 1250 continuous, 63750 integer (63750 binary)
Coefficient statistics:
  Matrix range     [1e+00, 1e+03]
  Objective range  [1e+00, 6e+01]
  Bounds range     [1e+00, 1e+00]
  RHS range        [1e+00, 1e+03]
Presolve removed 33750 rows and 20150 columns
Presolve time: 0.41s
Presolved: 31350 rows, 44850 columns, 252750 nonzeros
Variable types: 1150 continuous, 43700 integer (43700 binary)
Deterministic concurrent LP optimizer: primal and dual simplex
Showing primal log only...

Concurrent spin time: 0.00s

Solved with dual simplex

Use crossover to convert LP symmetric solution to basic solution...

Root relaxation: objective 2.629296e+02, 1237 iterations, 0.20 seconds (0.15 work units)

    Nodes    |    Current Node    |     Objective Bounds      |     Work
 Expl Unexpl |  Obj  Depth IntInf | Incumbent    BestBd   Gap | It/Node Time

     0     0  262.92961    0   58          -  262.92961      -     -    1s
     0     0  262.92961    0  234          -  262.92961      -     -    2s
     0     0  263.28348    0  208          -  263.28348      -     -    3s
     0     0  263.37195    0   71          -  263.37195      -     -    4s
     0     0  263.37195    0   77          -  263.37195      -     -    4s
     0     0  263.65984    0   84          -  263.65984      -     -    4s
     0     0  263.65984    0   84          -  263.65984      -     -    4s
H    0     0                    1835.3612500  263.65984  85.6%     -    5s
     0     0  263.65984    0  207 1835.36125  263.65984  85.6%     -    5s
     0     0  263.65984    0  177 1835.36125  263.65984  85.6%     -    5s
     0     0  263.65984    0  160 1835.36125  263.65984  85.6%     -    6s
     0     0  263.65984    0  160 1835.36125  263.65984  85.6%     -    6s
H    0     0                    1278.2056692  263.65984  79.4%     -    7s
     0     0  263.66995    0  144 1278.20567  263.66995  79.4%     -    7s
     0     0  263.66995    0  144 1278.20567  263.66995  79.4%     -    7s
     0     0  265.33413    0  149 1278.20567  265.33413  79.2%     -    8s
     0     0  266.67752    0  148 1278.20567  266.67752  79.1%     -    8s
H    0     0                     888.8274979  266.75361  70.0%     -    9s
     0     0  269.99764    0  141  888.82750  269.99764  69.6%     -    9s
     0     0  269.99764    0  132  888.82750  269.99764  69.6%     -    9s
     0     0  269.99764    0  139  888.82750  269.99764  69.6%     -    9s
     0     0  271.32568    0  112  888.82750  271.32568  69.5%     -   10s
     0     0  272.38281    0  146  888.82750  272.38281  69.4%     -   10s
H    0     0                     670.3325006  272.41557  59.4%     -   11s
     0     0  272.41557    0  153  670.33250  272.41557  59.4%     -   12s
     0     0  272.41557    0  153  670.33250  272.41557  59.4%     -   12s
     0     0  272.41557    0  140  670.33250  272.41557  59.4%     -   12s
H    0     0                     437.2264557  272.41557  37.7%     -   13s
     0     0  272.41557    0  136  437.22646  272.41557  37.7%     -   13s
     0     0  272.41557    0   88  437.22646  272.41557  37.7%     -   14s
     0     0  272.41557    0   90  437.22646  272.41557  37.7%     -   15s
     0     0  272.41557    0   82  437.22646  272.41557  37.7%     -   16s
     0     0  272.41557    0   91  437.22646  272.41557  37.7%     -   16s
     0     0  272.61940    0   82  437.22646  272.61940  37.6%     -   17s
H    0     0                     436.3425149  272.64298  37.5%     -   18s
     0     0  272.64298    0   92  436.34251  272.64298  37.5%     -   18s
     0     0  272.64298    0   92  436.34251  272.64298  37.5%     -   18s
     0     0  273.22735    0  128  436.34251  273.22735  37.4%     -   19s
     0     0  273.68444    0   91  436.34251  273.68444  37.3%     -   21s
     0     0  273.68444    0   91  436.34251  273.68444  37.3%     -   21s
     0     0  275.21666    0  122  436.34251  275.21666  36.9%     -   22s
     0     0  275.87244    0   88  436.34251  275.87244  36.8%     -   22s
     0     0  275.87244    0   98  436.34251  275.87244  36.8%     -   23s
     0     0  275.87244    0   52  436.34251  275.87244  36.8%     -   23s
     0     0  277.33164    0  104  436.34251  277.33164  36.4%     -   24s
     0     0  277.47014    0  144  436.34251  277.47014  36.4%     -   24s
     0     0  278.25881    0   94  436.34251  278.25881  36.2%     -   24s
     0     0  278.60562    0  118  436.34251  278.60562  36.1%     -   25s
     0     0  278.60562    0  112  436.34251  278.60562  36.1%     -   25s
     0     0  278.76488    0  101  436.34251  278.76488  36.1%     -   25s
     0     0  278.77215    0  112  436.34251  278.77215  36.1%     -   25s
     0     0  278.77719    0  102  436.34251  278.77719  36.1%     -   26s
H    0     0                     435.8471383  278.77719  36.0%     -   26s
     0     0  278.77719    0  102  435.84714  278.77719  36.0%     -   26s
     0     0  279.75221    0   93  435.84714  279.75221  35.8%     -   26s
     0     0  279.81244    0  104  435.84714  279.81244  35.8%     -   27s
     0     0  279.81244    0  104  435.84714  279.81244  35.8%     -   27s
     0     0  282.47942    0   85  435.84714  282.47942  35.2%     -   28s
     0     0  282.48787    0   81  435.84714  282.48787  35.2%     -   28s
     0     0  282.52823    0   90  435.84714  282.52823  35.2%     -   29s
     0     0  282.52823    0   86  435.84714  282.52823  35.2%     -   29s
     0     0  282.52823    0   86  435.84714  282.52823  35.2%     -   29s
     0     0  284.68643    0  121  435.84714  284.68643  34.7%     -   30s
     0     0  286.42547    0  182  435.84714  286.42547  34.3%     -   30s
     0     0  286.50295    0  130  435.84714  286.50295  34.3%     -   31s
H    0     0                     432.8248373  286.55713  33.8%     -   31s
     0     0  286.55713    0  116  432.82484  286.55713  33.8%     -   31s
     0     0  290.94460    0  132  432.82484  290.94460  32.8%     -   32s
H    0     0                     432.6920914  291.33544  32.7%     -   33s
     0     0  291.33544    0  132  432.69209  291.33544  32.7%     -   33s
     0     0  291.49721    0  164  432.69209  291.49721  32.6%     -   34s
H    0     0                     431.0632324  292.10268  32.2%     -   35s
     0     0  292.10268    0  161  431.06323  292.10268  32.2%     -   35s
     0     0  293.71888    0  106  431.06323  293.71888  31.9%     -   36s
     0     0  293.99700    0  106  431.06323  293.99700  31.8%     -   37s
     0     0  294.71224    0  111  431.06323  294.71224  31.6%     -   38s
     0     0  295.88831    0  119  431.06323  295.88831  31.4%     -   38s
     0     0  296.13296    0  117  431.06323  296.13296  31.3%     -   38s
H    0     0                     404.4942371  296.61393  26.7%     -   39s
     0     0  296.61393    0   99  404.49424  296.61393  26.7%     -   39s
     0     0  296.61393    0   99  404.49424  296.61393  26.7%     -   39s
     0     0  325.16130    0  149  404.49424  325.16130  19.6%     -   40s
     0     0  325.38617    0  121  404.49424  325.38617  19.6%     -   40s
     0     0  325.38617    0  132  404.49424  325.38617  19.6%     -   40s
     0     0  326.96312    0  161  404.49424  326.96312  19.2%     -   41s
     0     0  326.96693    0  150  404.49424  326.96693  19.2%     -   41s
H    0     0                     363.7996690  327.38459  10.0%     -   43s
     0     0  327.47624    0   92  363.79967  327.47624  10.0%     -   44s
     0     0  327.55631    0  109  363.79967  327.55631  10.0%     -   44s
     0     0  327.63574    0  112  363.79967  327.63574  9.94%     -   44s
     0     0  327.63574    0  112  363.79967  327.63574  9.94%     -   44s
     0     0  327.63574    0  100  363.79967  327.63574  9.94%     -   44s
     0     0  327.66240    0  135  363.79967  327.66240  9.93%     -   44s
     0     0  327.66240    0  133  363.79967  327.66240  9.93%     -   44s
     0     0  327.66262    0  123  363.79967  327.66262  9.93%     -   44s
     0     0  327.66443    0  116  363.79967  327.66443  9.93%     -   44s
     0     0  330.55771    0   74  363.79967  330.55771  9.14%     -   45s
     0     0  330.55771    0   70  363.79967  330.55771  9.14%     -   46s
     0     0  330.55771    0  298  363.79967  330.55771  9.14%     -   47s
     0     0  330.55771    0  225  363.79967  330.55771  9.14%     -   47s
     0     0  330.55771    0   92  363.79967  330.55771  9.14%     -   48s
     0     0  330.55771    0  122  363.79967  330.55771  9.14%     -   48s
     0     0  330.55771    0  120  363.79967  330.55771  9.14%     -   48s
     0     0  330.55771    0  204  363.79967  330.55771  9.14%     -   49s
     0     0  330.55771    0  186  363.79967  330.55771  9.14%     -   49s
     0     0  330.55771    0  103  363.79967  330.55771  9.14%     -   49s
     0     0  330.55771    0  120  363.79967  330.55771  9.14%     -   49s
     0     0  330.55771    0  230  363.79967  330.55771  9.14%     -   50s
     0     0  330.55771    0  231  363.79967  330.55771  9.14%     -   50s
     0     0  330.55771    0  217  363.79967  330.55771  9.14%     -   50s
     0     0  330.55771    0  145  363.79967  330.55771  9.14%     -   51s
H    0     0                     363.5313935  330.55771  9.07%     -   52s
     0     0  330.55771    0  101  363.53139  330.55771  9.07%     -   52s
     0     0  330.55771    0  101  363.53139  330.55771  9.07%     -   52s
     0     0  330.55771    0  130  363.53139  330.55771  9.07%     -   52s
     0     0  330.58325    0   86  363.53139  330.58325  9.06%     -   52s
     0     0  331.07215    0  137  363.53139  331.07215  8.93%     -   52s
     0     0  331.08133    0  117  363.53139  331.08133  8.93%     -   52s
     0     0  332.07548    0  178  363.53139  332.07548  8.65%     -   53s
     0     0  332.07548    0  140  363.53139  332.07548  8.65%     -   53s
     0     0  332.07548    0   70  363.53139  332.07548  8.65%     -   54s
     0     0  332.07548    0   70  363.53139  332.07548  8.65%     -   54s
     0     0  332.07548    0   46  363.53139  332.07548  8.65%     -   54s
     0     0  332.07548    0   79  363.53139  332.07548  8.65%     -   55s
     0     0  332.07548    0   46  363.53139  332.07548  8.65%     -   55s
     0     0  332.07548    0   46  363.53139  332.07548  8.65%     -   55s
     0     0  332.07548    0   46  363.53139  332.07548  8.65%     -   56s
     0     0  332.07548    0   46  363.53139  332.07548  8.65%     -   56s
     0     0  332.71368    0   70  363.53139  332.71368  8.48%     -   57s
     0     0  332.71368    0  268  363.53139  332.71368  8.48%     -   58s
     0     0  332.71368    0  263  363.53139  332.71368  8.48%     -   59s
     0     0  332.71368    0  116  363.53139  332.71368  8.48%     -   59s
     0     0  332.71368    0   95  363.53139  332.71368  8.48%     -   60s
     0     0  332.71368    0   77  363.53139  332.71368  8.48%     -   60s
     0     0  332.71368    0  169  363.53139  332.71368  8.48%     -   60s
     0     0  332.71368    0  129  363.53139  332.71368  8.48%     -   60s
     0     0  332.71368    0  159  363.53139  332.71368  8.48%     -   61s
     0     0  332.71368    0  143  363.53139  332.71368  8.48%     -   61s
     0     0  332.71368    0  147  363.53139  332.71368  8.48%     -   61s
     0     0  332.71368    0  162  363.53139  332.71368  8.48%     -   61s
     0     0  332.71368    0  130  363.53139  332.71368  8.48%     -   61s
     0     0  332.71368    0  106  363.53139  332.71368  8.48%     -   61s
     0     0  332.71368    0  101  363.53139  332.71368  8.48%     -   61s
     0     0  332.71368    0  169  363.53139  332.71368  8.48%     -   61s
     0     0  332.71368    0  202  363.53139  332.71368  8.48%     -   62s
     0     0  332.71368    0  142  363.53139  332.71368  8.48%     -   62s
H    0     0                     362.1708100  332.71368  8.13%     -   62s
     0     0  332.71368    0   55  362.17081  332.71368  8.13%     -   62s
     0     0  332.71368    0   85  362.17081  332.71368  8.13%     -   63s
     0     0  332.71368    0   46  362.17081  332.71368  8.13%     -   63s
     0     0  332.71368    0  102  362.17081  332.71368  8.13%     -   63s
     0     0  332.71368    0  155  362.17081  332.71368  8.13%     -   64s
     0     0  332.71368    0   57  362.17081  332.71368  8.13%     -   64s
     0     0  332.71368    0   46  362.17081  332.71368  8.13%     -   64s
     0     0  332.71368    0   46  362.17081  332.71368  8.13%     -   64s
     0     0  332.71368    0   46  362.17081  332.71368  8.13%     -   65s
     0     0  332.71368    0   46  362.17081  332.71368  8.13%     -   65s
     0     0  332.71368    0   46  362.17081  332.71368  8.13%     -   66s
     0     0  332.71368    0   70  362.17081  332.71368  8.13%     -   67s
     0     0  332.71368    0  248  362.17081  332.71368  8.13%     -   68s
     0     0  332.71368    0  240  362.17081  332.71368  8.13%     -   69s
     0     0  332.71368    0   86  362.17081  332.71368  8.13%     -   69s
     0     0  332.71368    0  112  362.17081  332.71368  8.13%     -   70s
     0     0  332.71368    0  117  362.17081  332.71368  8.13%     -   70s
     0     0  332.71368    0  210  362.17081  332.71368  8.13%     -   70s
     0     0  332.71368    0  112  362.17081  332.71368  8.13%     -   71s
     0     0  332.71368    0   94  362.17081  332.71368  8.13%     -   71s
     0     0  332.71368    0   94  362.17081  332.71368  8.13%     -   71s
     0     0  332.71368    0   82  362.17081  332.71368  8.13%     -   72s
     0     0  332.71368    0   70  362.17081  332.71368  8.13%     -   72s
     0     0  332.71368    0   99  362.17081  332.71368  8.13%     -   72s
     0     0  332.71368    0  145  362.17081  332.71368  8.13%     -   72s
     0     0  332.71368    0   68  362.17081  332.71368  8.13%     -   72s
     0     0  332.71368    0   92  362.17081  332.71368  8.13%     -   73s
     0     0  332.71368    0   46  362.17081  332.71368  8.13%     -   73s
     0     0  332.71368    0   46  362.17081  332.71368  8.13%     -   73s
     0     0  332.71368    0   80  362.17081  332.71368  8.13%     -   74s
     0     0  332.71368    0   68  362.17081  332.71368  8.13%     -   74s
     0     0  332.71368    0   46  362.17081  332.71368  8.13%     -   74s
     0     0  332.71368    0   46  362.17081  332.71368  8.13%     -   74s
     0     2  332.71368    0   46  362.17081  332.71368  8.13%     -   75s
    68    58  336.40020   12   34  362.17081  332.71368  8.13%   163   82s
    92    82  336.90644   15   40  362.17081  332.71368  8.13%   142   86s
   231   191  338.51941   33   53  362.17081  332.71368  8.13%  86.1   90s
   439   311     cutoff   72       362.17081  332.71368  8.13%  80.5   95s
   614   387  338.38718   23   71  362.17081  332.71368  8.13%  91.5  100s
   903   541  344.34046   58   92  362.17081  332.71368  8.13%  86.9  105s
  1204   687  335.03311   10   14  362.17081  333.27413  7.98%  85.8  110s
  1460   856  339.26039   20   90  362.17081  333.27413  7.98%  85.3  115s
  1714   977  337.76500   13   74  362.17081  333.27413  7.98%  83.2  120s
  1716   978  348.48302   85   70  362.17081  333.27413  7.98%  83.1  125s
  1718   980  342.50943   27  182  362.17081  333.27413  7.98%  83.0  130s
  1720   981  338.50021   33   82  362.17081  333.27413  7.98%  82.9  135s
  1722   982  337.72641   17  160  362.17081  333.27413  7.98%  82.8  141s
  1724   984  338.53413   40   46  362.17081  333.27413  7.98%  82.7  145s
  1728   986  361.33362   29   90  362.17081  333.27413  7.98%  82.5  152s
  1730   988  351.85510   17   46  362.17081  333.27413  7.98%  82.4  156s
  1732   989  338.23384   64   70  362.17081  333.27413  7.98%  82.3  161s
  1734   990  334.36593   36   46  362.17081  333.27413  7.98%  82.2  165s
  1742  1001  333.27624   14   58  362.17081  333.27624  7.98%  90.1  170s
  1805  1021  333.27624   20   46  362.17081  333.27624  7.98%  92.4  179s
  1826  1033  333.27624   21   64  362.17081  333.27624  7.98%  92.9  180s
  1876  1047  333.49630   24   13  362.17081  333.27624  7.98%  92.9  185s
  2032  1058  339.18182   35   20  362.17081  333.27624  7.98%  94.3  190s
  2198  1106  350.96744   50   57  362.17081  333.27624  7.98%  96.7  195s
  2374  1164  337.71512   42   64  362.17081  333.27624  7.98%  99.4  200s
  2568  1208  333.27624   24   47  362.17081  333.27624  7.98%   104  205s
  2805  1251  352.69951   26   67  362.17081  333.27624  7.98%   105  210s
  3077  1327  333.27624   34   74  362.17081  333.27624  7.98%   102  216s
  3348  1402  343.91767   38   43  362.17081  333.27624  7.98%   103  221s
  3585  1437  340.30663   49   42  362.17081  333.27624  7.98%   104  226s
  3740  1477  346.23351   73   65  362.17081  333.27624  7.98%   106  230s
  4070  1568  336.23253   49   67  362.17081  333.27624  7.98%   111  236s
  4337  1666  339.28370   39   61  362.17081  333.27624  7.98%   111  241s
  4632  1685  343.30424   43   77  362.17081  333.27624  7.98%   113  249s
  4673  1752  340.07071   44   44  362.17081  333.27624  7.98%   114  252s
  4853  1818  340.38847   55   17  362.17081  333.27624  7.98%   116  255s
  5118  2020  340.49388   73   13  362.17081  333.27624  7.98%   116  262s
  5292  2202  348.30919   83   18  362.17081  333.27624  7.98%   115  265s
  5732  2554  340.74260  114   22  362.17081  333.27624  7.98%   112  271s
  5980  2678  341.15066  131   23  362.17081  333.27624  7.98%   112  275s
  6533  3099  344.96720   29   95  362.17081  333.27624  7.98%   110  282s
  6896  3319  334.05363   58   68  362.17081  333.27624  7.98%   108  286s
  7455  3733  333.84441   47   53  362.17081  333.27624  7.98%   106  293s
  7672  3941  342.11827  128   58  362.17081  333.27624  7.98%   104  298s
  8059  4114  334.80633   35   57  362.17081  333.27624  7.98%   103  303s
  8402  4320     cutoff   44       362.17081  333.27624  7.98%   103  307s
  8803  4545  341.59067   34   65  362.17081  333.27624  7.98%   103  312s
  9213  4826  340.85420   47   88  362.17081  333.27624  7.98%   102  318s
  9728  5276  339.53363   57   28  362.17081  333.27624  7.98%   100  324s
 10320  5506  336.59381   55   47  362.17081  333.27624  7.98%  98.9  334s
 10656  5832  344.11270   58   30  362.17081  333.27624  7.98%  98.3  340s
 11173  6127  342.52225   45   50  362.17081  333.27624  7.98%  97.7  346s
 11614  6404  336.93831   33  100  362.17081  333.27624  7.98%  97.0  352s
H11884  6404                     362.1707962  333.27624  7.98%  96.1  352s
 11960  7121  343.33839   58   58  362.17080  333.27624  7.98%  95.9  361s
 12950  7122  348.66742   26   74  362.17080  333.27624  7.98%  93.1  368s
 12952  7123  334.16869   46   70  362.17080  333.27624  7.98%  93.1  373s
 12954  7125  349.94639   65  208  362.17080  333.27624  7.98%  93.1  380s
 12961  7129  340.87829  113   70  362.17080  333.27624  7.98%  93.1  385s
 12966  7133  338.80578   39   46  362.17080  333.27624  7.98%  93.0  392s
 12968  7134  346.38734   94   58  362.17080  333.27624  7.98%  93.0  395s
 12971  7136  361.22493   85   46  362.17080  333.27624  7.98%  93.0  400s
 12974  7138  337.26520   48   46  362.17080  333.27624  7.98%  93.0  407s
 12976  7139  358.53618  117   46  362.17080  333.27624  7.98%  92.9  410s
 13010  7166  333.27624   27   68  362.17080  333.27624  7.98%  94.1  415s
H13012  6807                     362.1707952  333.27624  7.98%  94.1  415s
 13048  6828  333.27624   31   46  362.17080  333.27624  7.98%  94.3  420s
 13181  6881  333.27624   39   54  362.17080  333.27624  7.98%  95.1  425s
 13318  6939  338.48257   48   61  362.17080  333.27624  7.98%  95.6  430s
 13488  6993  333.27624   63   54  362.17080  333.27624  7.98%  96.0  435s
 13579  7014  334.30667   71   81  362.17080  333.27624  7.98%  96.2  440s
H13642  6674                     362.1707938  333.27624  7.98%  96.3  444s
 13650  6690  333.27624   76   40  362.17079  333.27624  7.98%  96.3  445s
 13754  6712  337.68909   83   50  362.17079  333.27624  7.98%  96.3  456s
 13772  6726     cutoff   85       362.17079  333.27624  7.98%  96.3  461s
 13903  6823  335.69400   93   35  362.17079  333.27624  7.98%  96.0  465s
 14078  6865  343.93833  105   51  362.17079  333.27624  7.98%  96.0  471s
 14339  7114  344.92875  124   55  362.17079  333.27624  7.98%  95.3  476s
 14653  7229  354.08539  148   42  362.17079  333.27624  7.98%  94.0  480s
 15096  7378  351.61479  197   46  362.17079  333.27624  7.98%  92.9  487s
 15408  7451  350.70370  249   38  362.17079  333.27624  7.98%  92.3  492s
 15754  7568 infeasible   34       362.17079  333.27624  7.98%  91.7  496s
 16052  7737  349.96169   55   96  362.17079  333.27624  7.98%  91.2  501s
 16269  7721 infeasible   72       362.17079  333.27624  7.98%  90.8  505s
 16691  7843  341.80638   39   49  362.17079  333.27624  7.98%  89.2  512s
 16944  7978  350.32515   82   93  362.17079  333.27624  7.98%  88.5  515s
 17272  8117  342.18346   64   62  362.17079  333.27624  7.98%  87.5  520s
 17706  8057  344.90620  105   62  362.17079  333.27624  7.98%  86.4  540s
H17746  7721                     362.1707850  333.27624  7.98%  86.3  540s
 17831  7982  337.86552   50   37  362.17079  333.27624  7.98%  86.0  545s
 18345  8140  339.36336   92   41  362.17079  333.27624  7.98%  84.9  550s
 18912  8004  346.07996   64   53  362.17079  333.27624  7.98%  83.4  555s
 19464  8232  333.60247   68   73  362.17079  333.27624  7.98%  82.6  564s
 19876  8319  342.14367   88   36  362.17079  333.27624  7.98%  82.3  568s
 20279  8491  344.13279   56   48  362.17079  333.27624  7.98%  81.8  572s
 20713  8598  357.56523   89   74  362.17079  333.27624  7.98%  81.1  577s
 21123  8923  336.62145   83   34  362.17079  333.27624  7.98%  80.5  583s
 21848  9130  333.27624   50   21  362.17079  333.27624  7.98%  79.8  588s
 22501  9473  342.01899   63   40  362.17079  333.27624  7.98%  79.2  594s
H22718  9094                     362.1707826  333.27624  7.98%  78.8  594s
 23167  9309  347.24156  122   89  362.17078  333.27624  7.98%  78.6  600s
 24004  9331  333.35786   40    7  362.17078  333.27624  7.98%  78.2  610s
 24621  9443  359.03800   68   58  362.17078  333.27624  7.98%  77.9  615s
 25105  9519  336.55320  133   67  362.17078  333.27624  7.98%  77.4  621s
 25480 10003  337.51879  145   57  362.17078  333.27624  7.98%  76.9  630s
 26442  9932  346.07433  267   60  362.17078  333.27624  7.98%  75.8  635s
 26975  9860  359.97574  369   52  362.17078  333.27624  7.98%  75.7  640s
 27394  9967 infeasible   76       362.17078  333.27624  7.98%  76.0  645s
 27907 10012  337.14762   60   38  362.17078  333.27624  7.98%  76.0  651s
 28428 10060  341.84926  113   47  362.17078  333.27624  7.98%  75.7  658s
 28806 10185 infeasible   61       362.17078  333.27624  7.98%  75.5  664s
 29322 10328  350.28094   93  103  362.17078  333.27624  7.98%  75.6  671s
 30072 10387  345.78565   88   81  362.17078  333.27624  7.98%  75.6  677s
 30633 10552  345.37436   90   64  362.17078  333.27624  7.98%  75.4  683s
 31065 10793  336.25769   97   63  362.17078  333.27624  7.98%  75.4  690s
 31729 11029  347.50518   67   50  362.17078  333.27624  7.98%  75.1  697s
 32317 11365  334.67421   48   35  362.17078  333.27624  7.98%  74.9  704s
 32964 11610  345.65845  102  115  362.17078  333.27624  7.98%  74.8  711s
 33533 11846  351.44391   64   43  362.17078  333.27624  7.98%  74.8  719s
 34102 12209  352.20381   65   42  362.17078  333.27624  7.98%  74.8  726s
 34689 12615  339.14121   87   34  362.17078  333.27624  7.98%  75.2  734s
 35313 12975  333.27624   75   22  362.17078  333.27624  7.98%  75.0  744s
 35827 13069  333.55969   53   29  362.17078  333.27624  7.98%  75.2  753s
 35938 13509  333.64003   67   15  362.17078  333.27624  7.98%  75.2  761s
 36621 13941     cutoff   98       362.17078  333.27624  7.98%  75.5  770s
 37266 14333  338.88612  119   38  362.17078  333.27624  7.98%  75.3  781s
 37854 14797  338.12835   54   12  362.17078  333.27624  7.98%  75.3  789s
 38513 15451  354.92222  127   36  362.17078  333.27624  7.98%  75.7  801s
 39618 15787 infeasible  201       362.17078  333.27624  7.98%  75.3  808s
 40091 16106  337.52395   57   72  362.17078  333.27624  7.98%  75.2  815s
 40553 16430  341.37787  154   75  362.17078  333.27624  7.98%  75.3  822s
 41184 17021  336.20802   76   30  362.17078  333.27624  7.98%  75.5  830s
 41921 17964  336.44009   81   13  362.17078  333.27624  7.98%  75.0  840s
 43169 18355  344.36150  151   30  362.17078  333.27624  7.98%  74.1  852s
 43688 18693  346.68637  244   20  362.17078  333.27624  7.98%  73.8  858s
 44280 19069  334.77059   86   20  362.17078  333.27624  7.98%  74.2  865s
 44857 19636  334.68743   60   20  362.17078  333.27624  7.98%  74.1  873s
 45648 20045  338.54612   84   64  362.17078  333.27624  7.98%  74.3  884s
 46299 20496  340.91945   51   51  362.17078  333.27624  7.98%  74.7  891s
 47021 21191  361.01641   75   57  362.17078  333.27624  7.98%  74.9  901s
 48058 21494  337.33881   60   17  362.17078  333.27624  7.98%  74.2  908s
 48457 22120  337.33881   63   24  362.17078  333.27624  7.98%  74.0  916s
 49322 22629  336.83443   50   15  362.17078  333.27624  7.98%  73.9  924s
 50199 22969  336.18746   88   17  362.17078  333.27624  7.98%  74.0  931s
 50670 23706  336.54050  100    9  362.17078  333.27624  7.98%  73.9  938s
 51658 24300  351.71430  110   45  362.17078  333.30314  7.97%  73.5  948s
 52487 25008  336.82238   76   22  362.17078  333.30314  7.97%  73.6  957s
 53469 25360     cutoff   82       362.17078  333.31723  7.97%  73.3  962s
 54065 25468  337.08350   98   42  362.17078  333.31723  7.97%  73.5  969s
 54240 25728  340.22741  108   31  362.17078  333.33022  7.96%  73.4  974s
 54686 26321  346.94271   76   43  362.17078  333.33828  7.96%  73.8  983s
 55566 26575  336.28106   76   44  362.17078  333.34406  7.96%  73.7  994s
 55905 27317  336.28106   77   42  362.17078  333.34406  7.96%  73.6 1002s
 56774 28003  346.14266  211   22  362.17078  333.35277  7.96%  73.2 1011s
 57657 28892  338.19239  117   24  362.17078  333.35434  7.96%  72.8 1026s
 58836 29676     cutoff   78       362.17078  333.35786  7.96%  72.3 1034s
 59843 30085  344.63519   67   31  362.17078  333.35878  7.96%  72.0 1042s
 60518 30335  356.73639   66   75  362.17078  333.36123  7.95%  72.1 1049s
 61031 30881  339.07511   68   16  362.17078  333.36554  7.95%  72.5 1056s
 61820 31359  338.75662   96   20  362.17078  333.36924  7.95%  72.4 1070s
 62534 31648  335.47871   88   16  362.17078  333.37944  7.95%  72.3 1077s
 63022 32033  345.50727   88   86  362.17078  333.38116  7.95%  72.8 1086s
 63829 32402     cutoff   79       362.17078  333.38784  7.95%  73.0 1094s
 64452 33164  340.10603   59   21  362.17078  333.39147  7.95%  73.1 1104s
 65435 33570  345.18149  131   40  362.17078  333.39908  7.94%  72.9 1112s
 66103 34146  350.96185   82   58  362.17078  333.40030  7.94%  73.0 1121s
 67008 34329  339.50209   49   10  362.17078  333.40364  7.94%  73.0 1127s
 67451 34859  344.75571   86   42  362.17078  333.40597  7.94%  73.2 1134s
 68142 35606  345.98678  143   35  362.17078  333.41380  7.94%  73.1 1143s
 69142 36061  348.25635  156   66  362.17078  333.42276  7.94%  72.8 1152s
 69815 36394  338.10664  103   31  362.17078  333.42542  7.94%  72.6 1159s
 70323 36749  334.16637   95   15  362.17078  333.43020  7.94%  73.1 1166s
 71049 36974  333.98574   35   31  362.17078  333.43028  7.94%  73.4 1173s
 71451 37378  340.40763   91   30  362.17078  333.43347  7.93%  73.4 1181s
 72295 37947  340.98429  161   23  362.17078  333.43705  7.93%  73.4 1189s
 73216 38149  344.61772   76   20  362.17078  333.44388  7.93%  73.3 1197s
 73585 38463  335.49598  128   16  362.17078  333.44821  7.93%  73.4 1205s
 74113 38812  340.35437   96   13  362.17078  333.45147  7.93%  73.4 1213s
 74674 39228  339.94265  110   30  362.17078  333.45677  7.93%  73.7 1221s
 75313 39654  353.27413   64   22  362.17078  333.46068  7.93%  73.9 1231s
 75897 40574  360.86507  162   13  362.17078  333.46126  7.93%  73.8 1243s
 77200 41091  341.83831   78   37  362.17078  333.46126  7.93%  73.4 1254s
 78015 41573  335.13556   62   38  362.17078  333.46126  7.93%  73.7 1263s
 78820 41919  333.85827   69   18  362.17078  333.46126  7.93%  73.9 1273s
 79440 42547  339.60845  173   20  362.17078  333.46126  7.93%  74.0 1289s
 80255 42785  342.81817  132   70  362.17078  333.46126  7.93%  73.8 1307s
 80597 43349     cutoff   47       362.17078  333.46126  7.93%  73.7 1318s
 81421 43914  338.58208   55   15  362.17078  333.47464  7.92%  73.9 1329s
 82276 44452  350.88609  118   42  362.17078  333.47464  7.92%  74.0 1342s
 83184 44933     cutoff  110       362.17078  333.48014  7.92%  74.1 1353s
 84011 45513  342.65617   85   68  362.17078  333.48342  7.92%  74.4 1364s
 84177 45513  350.22170  206   38  362.17078  333.48472  7.92%  74.3 1365s
 85014 45844  343.58994   45   19  362.17078  333.48476  7.92%  74.3 1374s
 85632 46361  341.66598   90   64  362.17078  333.49027  7.92%  74.3 1384s
 86511 46376  335.70269  102   67  362.17078  333.49605  7.92%  74.4 1394s
 86529 46835  336.07401  105   71  362.17078  333.49623  7.92%  74.4 1404s
 87373 47374  347.36790   82   57  362.17078  333.50007  7.92%  74.5 1415s
 88247 47913  333.59332   62   39  362.17078  333.50934  7.91%  74.5 1424s
 88973 48410  347.87061  146   40  362.17078  333.51765  7.91%  74.4 1434s
 89831 48775  349.82180   56   62  362.17078  333.52186  7.91%  74.5 1444s
 90508 49005     cutoff   73       362.17078  333.52523  7.91%  74.6 1454s
 91004 49559  345.78919   72   28  362.17078  333.52696  7.91%  74.8 1466s
 92003 50135  349.26162   52   89  362.17078  333.53895  7.91%  75.0 1476s
 92875 50714  335.58981   91   50  362.17078  333.54824  7.90%  74.9 1487s
 93662 51261  333.55542   56   48  362.17078  333.54824  7.90%  74.7 1497s
 94471 51742  334.50943   62   37  362.17078  333.54824  7.90%  74.6 1507s
 95288 52245  337.22075   99   78  362.17078  333.55534  7.90%  74.5 1517s
 96190 52489  346.69076   50   44  362.17078  333.56420  7.90%  74.6 1524s
 96657 53091  343.89089   65   19  362.17078  333.56806  7.90%  74.8 1536s
 97726 53649  337.91804   65   37  362.17078  333.56849  7.90%  74.7 1547s
 98547 54131  343.00704   70   49  362.17078  333.58550  7.89%  74.6 1556s
 99332 54714  340.61948   55   12  362.17078  333.59112  7.89%  74.7 1566s
 100140 55346  348.27540  102  103  362.17078  333.60006  7.89%  74.7 1589s
 100956 55854  342.26746  114   60  362.17078  333.60006  7.89%  74.5 1601s
 101736 56412  335.10684   94   18  362.17078  333.60006  7.89%  74.6 1615s
 102688 57306  351.45328  117   49  362.17078  333.60006  7.89%  74.6 1633s
 103953 57679  335.65122   59   34  362.17078  333.60909  7.89%  74.4 1643s
 104536 58114  339.82881   79   85  362.17078  333.61607  7.88%  74.3 1653s
 105278 58494  346.00623   93   34  362.17078  333.61649  7.88%  74.3 1663s
 105959 58878  337.72657   61   64  362.17078  333.61733  7.88%  74.3 1673s
 106608 59204  340.35492   46   45  362.17078  333.62186  7.88%  74.3 1683s
 107172 59693  345.57765   78   36  362.17078  333.62388  7.88%  74.5 1692s
 107856 60155 infeasible  111       362.17078  333.62509  7.88%  74.4 1701s
 108525 61014  342.38817  150   32  362.17078  333.62632  7.88%  74.4 1714s
 109651 61382 infeasible   82       362.17078  333.63498  7.88%  74.2 1725s
 110359 61689  352.20584   89   83  362.17078  333.63656  7.88%  74.2 1735s
 111011 62017     cutoff   85       362.17078  333.64228  7.88%  74.3 1744s
 111633 62451  335.34345   49   24  362.17078  333.65070  7.87%  74.3 1755s
 112458 62978  336.87690  103   43  362.17078  333.65946  7.87%  74.3 1765s
 113273 63612  336.23391   76   15  362.17078  333.66176  7.87%  74.3 1776s
 114092 64373  333.98202   81   12  362.17078  333.66176  7.87%  74.2 1788s
 115064 64896  340.61877   67   20  362.17078  333.66177  7.87%  74.0 1800s

Cutting planes:
  Learned: 4
  Gomory: 3
  Lift-and-project: 37
  Cover: 1
  Implied bound: 169
  Clique: 42
  MIR: 76
  StrongCG: 3
  Flow cover: 238
  GUB cover: 1
  Zero half: 26
  Mod-K: 3
  RLT: 380
  Relax-and-lift: 282
  BQP: 50
  PSD: 42

Explored 115787 nodes (8632376 simplex iterations) in 1800.36 seconds (1775.80 work units)
Thread count was 6 (of 12 available processors)

Solution count 10: 362.171 362.171 362.171 ... 435.847

Time limit reached
Best objective 3.621707825711e+02, best bound 3.336643474453e+02, gap 7.8710%

